p edge 100 2443
e 1 8
e 1 10
e 1 12
e 1 14
e 1 15
e 1 16
e 1 17
e 1 19
e 1 20
e 1 22
e 1 23
e 1 24
e 1 25
e 1 28
e 1 29
e 1 33
e 1 35
e 1 37
e 1 40
e 1 41
e 1 42
e 1 44
e 1 46
e 1 48
e 1 49
e 1 51
e 1 53
e 1 57
e 1 58
e 1 60
e 1 61
e 1 62
e 1 65
e 1 66
e 1 67
e 1 68
e 1 70
e 1 78
e 1 79
e 1 82
e 1 83
e 1 84
e 1 87
e 1 88
e 1 89
e 1 91
e 1 92
e 1 93
e 1 94
e 1 95
e 1 96
e 1 99
e 1 100
e 2 3
e 2 6
e 2 7
e 2 8
e 2 11
e 2 12
e 2 13
e 2 17
e 2 18
e 2 22
e 2 24
e 2 29
e 2 30
e 2 31
e 2 32
e 2 33
e 2 34
e 2 37
e 2 41
e 2 43
e 2 47
e 2 48
e 2 50
e 2 51
e 2 52
e 2 54
e 2 55
e 2 56
e 2 59
e 2 64
e 2 65
e 2 66
e 2 67
e 2 68
e 2 71
e 2 72
e 2 77
e 2 78
e 2 80
e 2 81
e 2 82
e 2 83
e 2 85
e 2 87
e 2 88
e 2 89
e 2 90
e 2 92
e 2 94
e 2 95
e 2 96
e 2 97
e 2 99
e 3 4
e 3 5
e 3 7
e 3 8
e 3 9
e 3 11
e 3 12
e 3 13
e 3 14
e 3 15
e 3 16
e 3 18
e 3 19
e 3 20
e 3 22
e 3 25
e 3 28
e 3 30
e 3 32
e 3 33
e 3 34
e 3 36
e 3 39
e 3 43
e 3 48
e 3 49
e 3 52
e 3 53
e 3 54
e 3 55
e 3 57
e 3 62
e 3 64
e 3 65
e 3 68
e 3 69
e 3 70
e 3 73
e 3 75
e 3 76
e 3 77
e 3 78
e 3 80
e 3 82
e 3 83
e 3 84
e 3 85
e 3 86
e 3 91
e 4 5
e 4 6
e 4 10
e 4 11
e 4 12
e 4 14
e 4 16
e 4 17
e 4 19
e 4 20
e 4 21
e 4 24
e 4 26
e 4 27
e 4 29
e 4 32
e 4 35
e 4 40
e 4 41
e 4 42
e 4 44
e 4 45
e 4 47
e 4 48
e 4 49
e 4 51
e 4 53
e 4 55
e 4 56
e 4 57
e 4 59
e 4 60
e 4 61
e 4 62
e 4 63
e 4 65
e 4 66
e 4 67
e 4 79
e 4 81
e 4 84
e 4 85
e 4 89
e 4 90
e 4 91
e 4 93
e 4 94
e 4 98
e 5 7
e 5 9
e 5 10
e 5 11
e 5 12
e 5 18
e 5 19
e 5 20
e 5 21
e 5 23
e 5 24
e 5 25
e 5 27
e 5 28
e 5 31
e 5 32
e 5 40
e 5 42
e 5 44
e 5 46
e 5 48
e 5 49
e 5 51
e 5 53
e 5 55
e 5 56
e 5 57
e 5 58
e 5 59
e 5 60
e 5 63
e 5 70
e 5 72
e 5 73
e 5 75
e 5 76
e 5 78
e 5 80
e 5 83
e 5 86
e 5 89
e 5 90
e 5 92
e 5 94
e 5 95
e 5 96
e 5 97
e 5 100
e 6 8
e 6 9
e 6 10
e 6 11
e 6 12
e 6 13
e 6 14
e 6 15
e 6 17
e 6 23
e 6 24
e 6 25
e 6 26
e 6 27
e 6 29
e 6 33
e 6 34
e 6 35
e 6 42
e 6 43
e 6 45
e 6 49
e 6 50
e 6 51
e 6 53
e 6 55
e 6 56
e 6 58
e 6 59
e 6 60
e 6 61
e 6 65
e 6 68
e 6 69
e 6 70
e 6 71
e 6 72
e 6 76
e 6 78
e 6 83
e 6 86
e 6 88
e 6 90
e 6 95
e 6 96
e 6 97
e 6 99
e 6 100
e 7 8
e 7 10
e 7 11
e 7 15
e 7 16
e 7 17
e 7 18
e 7 19
e 7 20
e 7 21
e 7 23
e 7 24
e 7 25
e 7 26
e 7 28
e 7 30
e 7 31
e 7 33
e 7 36
e 7 39
e 7 40
e 7 44
e 7 46
e 7 48
e 7 52
e 7 53
e 7 57
e 7 59
e 7 62
e 7 63
e 7 68
e 7 70
e 7 71
e 7 72
e 7 73
e 7 74
e 7 76
e 7 77
e 7 79
e 7 82
e 7 86
e 7 90
e 7 91
e 7 92
e 7 94
e 7 98
e 7 100
e 8 11
e 8 14
e 8 15
e 8 16
e 8 20
e 8 22
e 8 24
e 8 29
e 8 31
e 8 33
e 8 35
e 8 36
e 8 39
e 8 40
e 8 42
e 8 43
e 8 44
e 8 45
e 8 47
e 8 48
e 8 55
e 8 56
e 8 59
e 8 60
e 8 61
e 8 65
e 8 66
e 8 70
e 8 71
e 8 72
e 8 73
e 8 75
e 8 76
e 8 78
e 8 86
e 8 88
e 8 89
e 8 93
e 8 95
e 8 97
e 8 100
e 9 12
e 9 15
e 9 16
e 9 19
e 9 21
e 9 24
e 9 25
e 9 26
e 9 28
e 9 30
e 9 31
e 9 32
e 9 34
e 9 35
e 9 36
e 9 38
e 9 41
e 9 42
e 9 46
e 9 47
e 9 48
e 9 51
e 9 52
e 9 53
e 9 56
e 9 59
e 9 60
e 9 61
e 9 62
e 9 64
e 9 66
e 9 67
e 9 71
e 9 74
e 9 76
e 9 78
e 9 79
e 9 80
e 9 82
e 9 86
e 9 89
e 9 90
e 9 92
e 9 93
e 9 96
e 9 99
e 10 11
e 10 13
e 10 14
e 10 18
e 10 19
e 10 21
e 10 23
e 10 27
e 10 30
e 10 31
e 10 32
e 10 35
e 10 37
e 10 38
e 10 40
e 10 43
e 10 45
e 10 48
e 10 55
e 10 57
e 10 60
e 10 61
e 10 62
e 10 63
e 10 64
e 10 65
e 10 67
e 10 72
e 10 73
e 10 75
e 10 77
e 10 78
e 10 82
e 10 83
e 10 84
e 10 89
e 10 91
e 10 92
e 10 97
e 11 12
e 11 15
e 11 17
e 11 18
e 11 19
e 11 25
e 11 27
e 11 29
e 11 30
e 11 35
e 11 36
e 11 37
e 11 41
e 11 43
e 11 46
e 11 47
e 11 48
e 11 50
e 11 52
e 11 53
e 11 55
e 11 57
e 11 59
e 11 60
e 11 66
e 11 67
e 11 70
e 11 75
e 11 76
e 11 78
e 11 80
e 11 82
e 11 83
e 11 84
e 11 86
e 11 89
e 11 92
e 11 95
e 11 96
e 12 13
e 12 18
e 12 20
e 12 21
e 12 23
e 12 24
e 12 25
e 12 26
e 12 28
e 12 29
e 12 31
e 12 34
e 12 35
e 12 36
e 12 37
e 12 46
e 12 48
e 12 49
e 12 50
e 12 52
e 12 53
e 12 58
e 12 59
e 12 60
e 12 61
e 12 62
e 12 63
e 12 65
e 12 67
e 12 68
e 12 70
e 12 71
e 12 72
e 12 73
e 12 74
e 12 83
e 12 86
e 12 87
e 12 94
e 12 95
e 12 97
e 12 99
e 12 100
e 13 14
e 13 20
e 13 24
e 13 25
e 13 26
e 13 27
e 13 28
e 13 30
e 13 32
e 13 37
e 13 39
e 13 40
e 13 41
e 13 42
e 13 44
e 13 47
e 13 48
e 13 49
e 13 50
e 13 52
e 13 53
e 13 54
e 13 56
e 13 59
e 13 60
e 13 61
e 13 62
e 13 63
e 13 65
e 13 66
e 13 70
e 13 71
e 13 72
e 13 73
e 13 81
e 13 85
e 13 87
e 13 89
e 13 90
e 13 93
e 13 95
e 13 98
e 14 17
e 14 19
e 14 20
e 14 23
e 14 24
e 14 25
e 14 27
e 14 30
e 14 31
e 14 36
e 14 37
e 14 39
e 14 42
e 14 44
e 14 45
e 14 46
e 14 48
e 14 53
e 14 54
e 14 56
e 14 57
e 14 60
e 14 61
e 14 62
e 14 63
e 14 66
e 14 67
e 14 68
e 14 70
e 14 73
e 14 75
e 14 76
e 14 79
e 14 84
e 14 86
e 14 88
e 14 91
e 14 93
e 14 94
e 14 95
e 14 96
e 14 99
e 15 20
e 15 21
e 15 22
e 15 24
e 15 27
e 15 28
e 15 29
e 15 32
e 15 34
e 15 38
e 15 39
e 15 40
e 15 43
e 15 46
e 15 49
e 15 54
e 15 55
e 15 56
e 15 57
e 15 60
e 15 62
e 15 64
e 15 65
e 15 67
e 15 68
e 15 69
e 15 71
e 15 74
e 15 75
e 15 80
e 15 81
e 15 82
e 15 83
e 15 84
e 15 85
e 15 86
e 15 87
e 15 88
e 15 89
e 15 91
e 15 94
e 15 96
e 15 97
e 15 100
e 16 18
e 16 19
e 16 20
e 16 21
e 16 22
e 16 25
e 16 27
e 16 35
e 16 41
e 16 42
e 16 43
e 16 47
e 16 48
e 16 50
e 16 51
e 16 54
e 16 57
e 16 59
e 16 60
e 16 64
e 16 65
e 16 67
e 16 69
e 16 71
e 16 73
e 16 75
e 16 76
e 16 77
e 16 78
e 16 79
e 16 84
e 16 85
e 16 86
e 16 88
e 16 89
e 16 90
e 16 91
e 16 95
e 16 97
e 16 98
e 16 99
e 16 100
e 17 18
e 17 20
e 17 22
e 17 23
e 17 24
e 17 31
e 17 32
e 17 36
e 17 37
e 17 40
e 17 41
e 17 43
e 17 47
e 17 48
e 17 49
e 17 50
e 17 53
e 17 56
e 17 58
e 17 59
e 17 64
e 17 66
e 17 73
e 17 74
e 17 76
e 17 77
e 17 78
e 17 79
e 17 86
e 17 87
e 17 88
e 17 89
e 17 94
e 17 97
e 17 99
e 18 19
e 18 21
e 18 23
e 18 24
e 18 27
e 18 28
e 18 29
e 18 30
e 18 31
e 18 34
e 18 36
e 18 37
e 18 38
e 18 46
e 18 47
e 18 48
e 18 49
e 18 50
e 18 56
e 18 57
e 18 58
e 18 61
e 18 62
e 18 65
e 18 66
e 18 68
e 18 69
e 18 70
e 18 71
e 18 73
e 18 75
e 18 76
e 18 77
e 18 81
e 18 82
e 18 83
e 18 86
e 18 90
e 18 92
e 18 96
e 18 98
e 19 23
e 19 27
e 19 29
e 19 32
e 19 34
e 19 42
e 19 43
e 19 44
e 19 50
e 19 52
e 19 54
e 19 55
e 19 57
e 19 58
e 19 60
e 19 63
e 19 70
e 19 71
e 19 73
e 19 74
e 19 75
e 19 78
e 19 81
e 19 82
e 19 86
e 19 87
e 19 88
e 19 91
e 19 96
e 19 97
e 19 98
e 19 99
e 19 100
e 20 21
e 20 25
e 20 28
e 20 33
e 20 34
e 20 36
e 20 39
e 20 41
e 20 42
e 20 43
e 20 46
e 20 48
e 20 51
e 20 52
e 20 54
e 20 55
e 20 58
e 20 62
e 20 63
e 20 69
e 20 71
e 20 74
e 20 75
e 20 76
e 20 78
e 20 79
e 20 83
e 20 84
e 20 86
e 20 87
e 20 89
e 20 91
e 20 94
e 20 98
e 20 99
e 21 23
e 21 24
e 21 25
e 21 26
e 21 29
e 21 32
e 21 34
e 21 36
e 21 37
e 21 41
e 21 42
e 21 44
e 21 46
e 21 48
e 21 49
e 21 51
e 21 52
e 21 53
e 21 56
e 21 58
e 21 59
e 21 61
e 21 65
e 21 68
e 21 73
e 21 74
e 21 76
e 21 77
e 21 78
e 21 80
e 21 84
e 21 85
e 21 87
e 21 90
e 21 91
e 21 93
e 21 94
e 21 95
e 21 96
e 21 99
e 22 23
e 22 25
e 22 26
e 22 27
e 22 31
e 22 32
e 22 35
e 22 39
e 22 42
e 22 48
e 22 51
e 22 53
e 22 54
e 22 55
e 22 56
e 22 60
e 22 62
e 22 64
e 22 66
e 22 68
e 22 71
e 22 72
e 22 74
e 22 76
e 22 78
e 22 79
e 22 80
e 22 81
e 22 82
e 22 85
e 22 87
e 22 88
e 22 90
e 22 93
e 22 98
e 22 99
e 23 27
e 23 28
e 23 30
e 23 32
e 23 33
e 23 36
e 23 40
e 23 41
e 23 42
e 23 43
e 23 45
e 23 49
e 23 51
e 23 52
e 23 53
e 23 56
e 23 60
e 23 62
e 23 63
e 23 66
e 23 68
e 23 69
e 23 71
e 23 72
e 23 74
e 23 78
e 23 79
e 23 82
e 23 85
e 23 86
e 23 88
e 23 89
e 23 91
e 23 92
e 23 94
e 23 96
e 23 98
e 23 99
e 23 100
e 24 26
e 24 28
e 24 29
e 24 30
e 24 33
e 24 35
e 24 39
e 24 40
e 24 44
e 24 47
e 24 48
e 24 50
e 24 51
e 24 52
e 24 53
e 24 55
e 24 57
e 24 59
e 24 61
e 24 64
e 24 66
e 24 68
e 24 70
e 24 71
e 24 72
e 24 75
e 24 76
e 24 77
e 24 79
e 24 80
e 24 81
e 24 82
e 24 83
e 24 85
e 24 86
e 24 88
e 24 90
e 24 91
e 24 92
e 24 95
e 24 98
e 25 26
e 25 27
e 25 30
e 25 34
e 25 35
e 25 37
e 25 38
e 25 39
e 25 42
e 25 43
e 25 44
e 25 48
e 25 49
e 25 51
e 25 52
e 25 54
e 25 57
e 25 58
e 25 59
e 25 60
e 25 61
e 25 63
e 25 68
e 25 69
e 25 70
e 25 75
e 25 76
e 25 80
e 25 82
e 25 83
e 25 89
e 25 90
e 25 91
e 25 92
e 25 93
e 25 95
e 25 96
e 25 97
e 25 100
e 26 27
e 26 30
e 26 32
e 26 35
e 26 36
e 26 37
e 26 39
e 26 40
e 26 41
e 26 47
e 26 48
e 26 51
e 26 53
e 26 55
e 26 56
e 26 57
e 26 59
e 26 61
e 26 64
e 26 65
e 26 67
e 26 69
e 26 70
e 26 73
e 26 75
e 26 76
e 26 77
e 26 78
e 26 80
e 26 86
e 26 87
e 26 89
e 26 91
e 26 94
e 26 95
e 26 98
e 26 99
e 26 100
e 27 28
e 27 31
e 27 32
e 27 33
e 27 37
e 27 38
e 27 41
e 27 43
e 27 45
e 27 47
e 27 52
e 27 54
e 27 55
e 27 57
e 27 58
e 27 61
e 27 62
e 27 63
e 27 66
e 27 67
e 27 68
e 27 69
e 27 73
e 27 74
e 27 75
e 27 76
e 27 79
e 27 81
e 27 82
e 27 83
e 27 86
e 27 87
e 27 89
e 27 94
e 27 97
e 27 98
e 27 100
e 28 29
e 28 30
e 28 33
e 28 35
e 28 38
e 28 39
e 28 40
e 28 42
e 28 49
e 28 53
e 28 54
e 28 56
e 28 57
e 28 59
e 28 65
e 28 66
e 28 67
e 28 68
e 28 69
e 28 71
e 28 72
e 28 76
e 28 77
e 28 78
e 28 80
e 28 81
e 28 82
e 28 83
e 28 84
e 28 85
e 28 86
e 28 91
e 28 92
e 28 93
e 28 94
e 28 98
e 28 100
e 29 38
e 29 40
e 29 41
e 29 42
e 29 44
e 29 48
e 29 49
e 29 50
e 29 51
e 29 54
e 29 58
e 29 61
e 29 62
e 29 63
e 29 64
e 29 65
e 29 66
e 29 67
e 29 70
e 29 71
e 29 72
e 29 73
e 29 75
e 29 76
e 29 79
e 29 80
e 29 81
e 29 82
e 29 84
e 29 86
e 29 87
e 29 89
e 29 90
e 29 97
e 29 98
e 29 99
e 30 33
e 30 34
e 30 36
e 30 37
e 30 39
e 30 40
e 30 43
e 30 44
e 30 45
e 30 46
e 30 49
e 30 51
e 30 52
e 30 53
e 30 57
e 30 60
e 30 62
e 30 63
e 30 66
e 30 67
e 30 69
e 30 74
e 30 75
e 30 78
e 30 79
e 30 80
e 30 85
e 30 87
e 30 93
e 30 94
e 30 95
e 30 96
e 30 97
e 30 100
e 31 33
e 31 35
e 31 36
e 31 37
e 31 39
e 31 41
e 31 48
e 31 49
e 31 50
e 31 51
e 31 52
e 31 55
e 31 57
e 31 58
e 31 59
e 31 60
e 31 65
e 31 67
e 31 68
e 31 70
e 31 75
e 31 78
e 31 79
e 31 80
e 31 81
e 31 84
e 31 85
e 31 86
e 31 87
e 31 92
e 31 94
e 31 95
e 31 97
e 31 98
e 31 100
e 32 33
e 32 35
e 32 36
e 32 39
e 32 40
e 32 41
e 32 43
e 32 44
e 32 46
e 32 49
e 32 50
e 32 52
e 32 53
e 32 54
e 32 55
e 32 56
e 32 57
e 32 59
e 32 61
e 32 62
e 32 65
e 32 66
e 32 67
e 32 73
e 32 75
e 32 76
e 32 82
e 32 88
e 32 90
e 32 91
e 32 92
e 32 93
e 32 96
e 32 97
e 32 98
e 32 100
e 33 34
e 33 35
e 33 36
e 33 37
e 33 39
e 33 40
e 33 41
e 33 46
e 33 47
e 33 48
e 33 50
e 33 52
e 33 60
e 33 61
e 33 62
e 33 63
e 33 67
e 33 69
e 33 70
e 33 71
e 33 72
e 33 75
e 33 76
e 33 80
e 33 82
e 33 84
e 33 87
e 33 88
e 33 90
e 33 92
e 33 94
e 33 96
e 33 98
e 33 99
e 33 100
e 34 36
e 34 38
e 34 41
e 34 42
e 34 45
e 34 46
e 34 47
e 34 49
e 34 55
e 34 57
e 34 59
e 34 60
e 34 63
e 34 64
e 34 71
e 34 73
e 34 74
e 34 78
e 34 79
e 34 82
e 34 84
e 34 86
e 34 88
e 34 91
e 34 92
e 34 93
e 34 94
e 34 95
e 34 96
e 34 99
e 34 100
e 35 36
e 35 37
e 35 39
e 35 41
e 35 43
e 35 44
e 35 45
e 35 47
e 35 49
e 35 52
e 35 53
e 35 54
e 35 63
e 35 64
e 35 68
e 35 69
e 35 70
e 35 71
e 35 72
e 35 73
e 35 74
e 35 75
e 35 77
e 35 79
e 35 80
e 35 85
e 35 87
e 35 90
e 35 91
e 35 92
e 35 94
e 35 97
e 35 99
e 35 100
e 36 38
e 36 39
e 36 40
e 36 43
e 36 44
e 36 45
e 36 46
e 36 47
e 36 49
e 36 51
e 36 53
e 36 54
e 36 58
e 36 59
e 36 61
e 36 62
e 36 63
e 36 68
e 36 72
e 36 73
e 36 75
e 36 76
e 36 77
e 36 78
e 36 79
e 36 80
e 36 82
e 36 83
e 36 84
e 36 85
e 36 87
e 36 88
e 36 89
e 36 90
e 36 91
e 36 92
e 36 93
e 36 97
e 37 38
e 37 39
e 37 41
e 37 43
e 37 46
e 37 47
e 37 49
e 37 50
e 37 54
e 37 55
e 37 59
e 37 60
e 37 61
e 37 62
e 37 64
e 37 66
e 37 67
e 37 68
e 37 69
e 37 70
e 37 71
e 37 73
e 37 74
e 37 75
e 37 79
e 37 81
e 37 83
e 37 84
e 37 92
e 37 93
e 37 94
e 37 95
e 37 96
e 37 97
e 38 39
e 38 40
e 38 42
e 38 46
e 38 47
e 38 50
e 38 51
e 38 54
e 38 55
e 38 58
e 38 59
e 38 60
e 38 64
e 38 65
e 38 67
e 38 68
e 38 69
e 38 70
e 38 72
e 38 73
e 38 74
e 38 75
e 38 77
e 38 78
e 38 79
e 38 83
e 38 85
e 38 87
e 38 89
e 38 92
e 38 94
e 38 96
e 38 98
e 38 99
e 39 42
e 39 44
e 39 45
e 39 46
e 39 47
e 39 48
e 39 51
e 39 53
e 39 54
e 39 55
e 39 56
e 39 60
e 39 62
e 39 64
e 39 65
e 39 67
e 39 68
e 39 69
e 39 71
e 39 73
e 39 75
e 39 77
e 39 78
e 39 82
e 39 84
e 39 86
e 39 88
e 39 90
e 39 91
e 39 92
e 39 93
e 39 97
e 39 99
e 40 43
e 40 44
e 40 46
e 40 48
e 40 49
e 40 55
e 40 57
e 40 58
e 40 59
e 40 62
e 40 64
e 40 67
e 40 71
e 40 72
e 40 73
e 40 74
e 40 77
e 40 80
e 40 83
e 40 87
e 40 88
e 40 89
e 40 90
e 40 92
e 40 93
e 40 94
e 40 96
e 40 97
e 40 98
e 40 100
e 41 42
e 41 44
e 41 45
e 41 51
e 41 52
e 41 56
e 41 57
e 41 58
e 41 60
e 41 61
e 41 62
e 41 65
e 41 66
e 41 69
e 41 70
e 41 72
e 41 73
e 41 75
e 41 76
e 41 80
e 41 84
e 41 85
e 41 87
e 41 97
e 41 98
e 41 99
e 41 100
e 42 43
e 42 45
e 42 46
e 42 48
e 42 53
e 42 55
e 42 58
e 42 59
e 42 61
e 42 63
e 42 64
e 42 65
e 42 66
e 42 67
e 42 68
e 42 69
e 42 70
e 42 71
e 42 73
e 42 75
e 42 77
e 42 78
e 42 79
e 42 85
e 42 86
e 42 89
e 42 91
e 42 97
e 42 99
e 43 44
e 43 45
e 43 46
e 43 47
e 43 48
e 43 49
e 43 50
e 43 51
e 43 52
e 43 53
e 43 58
e 43 60
e 43 61
e 43 62
e 43 63
e 43 64
e 43 65
e 43 66
e 43 67
e 43 70
e 43 72
e 43 73
e 43 77
e 43 80
e 43 83
e 43 84
e 43 86
e 43 88
e 43 90
e 43 91
e 43 93
e 43 97
e 44 54
e 44 59
e 44 60
e 44 61
e 44 65
e 44 66
e 44 67
e 44 69
e 44 70
e 44 71
e 44 72
e 44 74
e 44 77
e 44 79
e 44 80
e 44 82
e 44 84
e 44 85
e 44 86
e 44 87
e 44 89
e 44 90
e 44 91
e 44 92
e 44 93
e 44 95
e 44 98
e 44 100
e 45 47
e 45 52
e 45 53
e 45 55
e 45 56
e 45 60
e 45 62
e 45 63
e 45 64
e 45 65
e 45 67
e 45 69
e 45 75
e 45 76
e 45 77
e 45 78
e 45 79
e 45 81
e 45 82
e 45 84
e 45 85
e 45 87
e 45 88
e 45 89
e 45 91
e 45 94
e 45 96
e 45 97
e 46 47
e 46 48
e 46 49
e 46 51
e 46 52
e 46 55
e 46 57
e 46 59
e 46 60
e 46 61
e 46 63
e 46 64
e 46 65
e 46 66
e 46 72
e 46 73
e 46 74
e 46 78
e 46 79
e 46 87
e 46 96
e 46 98
e 47 48
e 47 50
e 47 51
e 47 53
e 47 55
e 47 56
e 47 57
e 47 61
e 47 66
e 47 67
e 47 75
e 47 78
e 47 80
e 47 82
e 47 84
e 47 87
e 47 88
e 47 90
e 47 93
e 47 94
e 47 95
e 47 96
e 47 97
e 47 98
e 47 99
e 48 50
e 48 51
e 48 52
e 48 53
e 48 54
e 48 55
e 48 56
e 48 57
e 48 62
e 48 70
e 48 72
e 48 73
e 48 75
e 48 76
e 48 80
e 48 81
e 48 89
e 48 90
e 48 92
e 48 93
e 48 94
e 48 96
e 48 98
e 48 99
e 49 50
e 49 52
e 49 56
e 49 58
e 49 59
e 49 67
e 49 68
e 49 69
e 49 70
e 49 72
e 49 73
e 49 76
e 49 78
e 49 81
e 49 83
e 49 86
e 49 88
e 49 93
e 49 98
e 49 100
e 50 52
e 50 53
e 50 54
e 50 56
e 50 57
e 50 58
e 50 59
e 50 60
e 50 63
e 50 66
e 50 67
e 50 68
e 50 69
e 50 70
e 50 72
e 50 73
e 50 74
e 50 76
e 50 81
e 50 83
e 50 88
e 50 90
e 50 92
e 50 94
e 50 96
e 50 99
e 50 100
e 51 54
e 51 57
e 51 59
e 51 60
e 51 62
e 51 64
e 51 65
e 51 70
e 51 74
e 51 76
e 51 77
e 51 78
e 51 79
e 51 81
e 51 83
e 51 84
e 51 85
e 51 86
e 51 89
e 51 90
e 51 92
e 51 100
e 52 53
e 52 57
e 52 61
e 52 62
e 52 64
e 52 65
e 52 66
e 52 67
e 52 71
e 52 72
e 52 80
e 52 83
e 52 87
e 52 88
e 52 93
e 52 94
e 52 95
e 52 97
e 52 100
e 53 54
e 53 60
e 53 62
e 53 64
e 53 65
e 53 66
e 53 67
e 53 69
e 53 76
e 53 77
e 53 80
e 53 81
e 53 85
e 53 86
e 53 87
e 53 89
e 53 94
e 54 55
e 54 56
e 54 57
e 54 59
e 54 60
e 54 62
e 54 64
e 54 66
e 54 67
e 54 75
e 54 76
e 54 79
e 54 80
e 54 83
e 54 84
e 54 87
e 54 93
e 54 96
e 54 97
e 54 98
e 55 56
e 55 57
e 55 58
e 55 62
e 55 65
e 55 72
e 55 74
e 55 75
e 55 77
e 55 81
e 55 83
e 55 88
e 55 90
e 55 91
e 55 92
e 55 95
e 55 96
e 55 98
e 55 99
e 56 57
e 56 58
e 56 61
e 56 62
e 56 64
e 56 65
e 56 66
e 56 68
e 56 69
e 56 71
e 56 73
e 56 76
e 56 79
e 56 81
e 56 82
e 56 84
e 56 87
e 56 88
e 56 89
e 56 94
e 56 95
e 56 96
e 56 100
e 57 58
e 57 59
e 57 61
e 57 62
e 57 65
e 57 66
e 57 69
e 57 71
e 57 74
e 57 76
e 57 79
e 57 82
e 57 83
e 57 85
e 57 86
e 57 87
e 57 90
e 57 92
e 57 96
e 58 60
e 58 65
e 58 67
e 58 68
e 58 70
e 58 75
e 58 77
e 58 78
e 58 82
e 58 87
e 58 91
e 58 97
e 58 99
e 58 100
e 59 61
e 59 65
e 59 68
e 59 72
e 59 74
e 59 79
e 59 80
e 59 82
e 59 84
e 59 87
e 59 88
e 59 89
e 59 92
e 59 93
e 59 96
e 59 99
e 60 63
e 60 64
e 60 76
e 60 77
e 60 79
e 60 80
e 60 82
e 60 83
e 60 84
e 60 86
e 60 87
e 60 88
e 60 89
e 60 98
e 60 99
e 61 68
e 61 71
e 61 72
e 61 77
e 61 78
e 61 80
e 61 87
e 61 88
e 61 90
e 61 94
e 61 95
e 61 97
e 61 98
e 61 99
e 62 64
e 62 65
e 62 67
e 62 68
e 62 69
e 62 77
e 62 78
e 62 79
e 62 80
e 62 81
e 62 82
e 62 83
e 62 87
e 62 90
e 62 92
e 62 93
e 62 94
e 62 95
e 63 67
e 63 68
e 63 71
e 63 72
e 63 74
e 63 76
e 63 80
e 63 81
e 63 82
e 63 84
e 63 85
e 63 87
e 63 92
e 63 93
e 63 94
e 63 97
e 63 100
e 64 66
e 64 69
e 64 74
e 64 76
e 64 77
e 64 79
e 64 80
e 64 82
e 64 83
e 64 85
e 64 90
e 64 91
e 64 92
e 64 93
e 64 96
e 64 97
e 65 67
e 65 68
e 65 73
e 65 74
e 65 75
e 65 76
e 65 80
e 65 81
e 65 84
e 65 85
e 65 86
e 65 90
e 65 92
e 65 95
e 65 96
e 65 97
e 66 67
e 66 68
e 66 71
e 66 72
e 66 73
e 66 76
e 66 80
e 66 81
e 66 82
e 66 83
e 66 84
e 66 85
e 66 86
e 66 87
e 66 89
e 66 91
e 66 92
e 66 94
e 66 95
e 66 99
e 66 100
e 67 69
e 67 71
e 67 72
e 67 73
e 67 74
e 67 75
e 67 77
e 67 79
e 67 80
e 67 82
e 67 84
e 67 85
e 67 87
e 67 89
e 67 90
e 67 91
e 67 94
e 67 95
e 67 97
e 67 99
e 67 100
e 68 70
e 68 73
e 68 75
e 68 76
e 68 77
e 68 78
e 68 79
e 68 81
e 68 84
e 68 85
e 68 86
e 68 89
e 68 92
e 68 95
e 68 96
e 68 98
e 69 71
e 69 72
e 69 73
e 69 75
e 69 78
e 69 79
e 69 80
e 69 81
e 69 84
e 69 87
e 69 88
e 69 92
e 69 94
e 69 97
e 69 98
e 69 99
e 70 73
e 70 77
e 70 78
e 70 79
e 70 80
e 70 81
e 70 82
e 70 83
e 70 85
e 70 86
e 70 88
e 70 90
e 70 92
e 70 93
e 70 95
e 70 96
e 71 74
e 71 75
e 71 80
e 71 81
e 71 83
e 71 84
e 71 85
e 71 88
e 71 89
e 71 91
e 71 92
e 71 93
e 71 96
e 71 100
e 72 73
e 72 75
e 72 77
e 72 78
e 72 80
e 72 81
e 72 82
e 72 83
e 72 85
e 72 87
e 72 89
e 72 90
e 72 91
e 72 93
e 72 94
e 72 95
e 72 97
e 72 99
e 73 74
e 73 76
e 73 77
e 73 78
e 73 79
e 73 80
e 73 81
e 73 82
e 73 84
e 73 86
e 73 87
e 73 91
e 73 97
e 73 99
e 74 75
e 74 78
e 74 79
e 74 80
e 74 81
e 74 82
e 74 83
e 74 84
e 74 93
e 74 94
e 74 95
e 74 98
e 74 100
e 75 76
e 75 77
e 75 79
e 75 82
e 75 83
e 75 84
e 75 86
e 75 87
e 75 88
e 75 89
e 75 92
e 75 94
e 75 95
e 75 96
e 75 97
e 75 98
e 75 99
e 75 100
e 76 77
e 76 80
e 76 84
e 76 85
e 76 89
e 76 91
e 76 92
e 76 94
e 76 95
e 76 96
e 76 99
e 76 100
e 77 78
e 77 80
e 77 81
e 77 82
e 77 83
e 77 84
e 77 85
e 77 86
e 77 87
e 77 88
e 77 89
e 77 90
e 77 93
e 77 94
e 77 95
e 77 97
e 77 98
e 78 79
e 78 81
e 78 84
e 78 87
e 78 88
e 78 90
e 78 91
e 78 92
e 78 94
e 78 96
e 78 97
e 78 98
e 78 100
e 79 80
e 79 81
e 79 83
e 79 84
e 79 88
e 79 89
e 79 90
e 79 91
e 79 92
e 79 94
e 79 96
e 79 97
e 79 100
e 80 85
e 80 86
e 80 88
e 80 89
e 80 90
e 80 91
e 80 92
e 80 93
e 80 94
e 80 97
e 80 98
e 80 99
e 80 100
e 81 82
e 81 83
e 81 89
e 81 91
e 81 92
e 81 95
e 81 96
e 81 98
e 82 83
e 82 85
e 82 86
e 82 89
e 82 90
e 82 92
e 82 93
e 82 94
e 83 84
e 83 85
e 83 89
e 83 90
e 83 91
e 83 93
e 83 95
e 83 97
e 84 85
e 84 87
e 84 88
e 84 91
e 84 93
e 84 95
e 84 96
e 84 97
e 84 99
e 85 87
e 85 90
e 85 91
e 85 92
e 85 93
e 85 94
e 85 95
e 86 88
e 86 90
e 86 91
e 86 93
e 86 95
e 86 98
e 87 88
e 87 92
e 87 93
e 87 94
e 87 95
e 87 96
e 87 97
e 87 98
e 87 99
e 88 91
e 88 92
e 88 97
e 88 100
e 89 92
e 89 94
e 89 95
e 89 96
e 89 99
e 90 91
e 90 92
e 90 93
e 90 95
e 90 96
e 90 97
e 90 99
e 91 95
e 91 96
e 91 97
e 92 93
e 92 94
e 92 96
e 92 98
e 92 100
e 93 96
e 93 98
e 93 99
e 94 95
e 94 98
e 94 100
e 95 97
e 95 98
e 95 99
e 95 100
e 96 97
e 96 98
e 96 100
e 97 98
e 97 100
e 98 99
e 98 100